* ENCODING=ISO-8859-1
NAME          ./convert/K5010W19.KNP.mps
ROWS
 N  OBJROW            
 L  R0000000          
 L  IC0               
 L  IC1               
 L  IC2               
 L  IC3               
 L  IC4               
 L  IC5               
 L  IC6               
 L  IC7               
 L  IC8               
 L  IC9               
 L  interdictionBudget
COLUMNS
    MARK0000  'MARKER'                 'INTORG'
    C0000000            OBJROW                                  500
    C0000000            R0000000                                174
    C0000000            IC0                                       1
    C0000001            OBJROW                                  959
    C0000001            R0000000                                157
    C0000001            IC1                                       1
    C0000002            OBJROW                                  634
    C0000002            R0000000                                196
    C0000002            IC2                                       1
    C0000003            OBJROW                                  872
    C0000003            R0000000                                567
    C0000003            IC3                                       1
    C0000004            OBJROW                                  298
    C0000004            R0000000                                786
    C0000004            IC4                                       1
    C0000005            OBJROW                                  688
    C0000005            R0000000                                673
    C0000005            IC5                                       1
    C0000006            OBJROW                                  978
    C0000006            R0000000                                808
    C0000006            IC6                                       1
    C0000007            OBJROW                                  576
    C0000007            R0000000                                211
    C0000007            IC7                                       1
    C0000008            OBJROW                                  346
    C0000008            R0000000                                 86
    C0000008            IC8                                       1
    C0000009            OBJROW                                  521
    C0000009            R0000000                                565
    C0000009            IC9                                       1
    x0                  IC0                                       1
    x0                  interdictionBudget                      638
    x1                  IC1                                       1
    x1                  interdictionBudget                      757
    x2                  IC2                                       1
    x2                  interdictionBudget                      700
    x3                  IC3                                       1
    x3                  interdictionBudget                       63
    x4                  IC4                                       1
    x4                  interdictionBudget                      228
    x5                  IC5                                       1
    x5                  interdictionBudget                      951
    x6                  IC6                                       1
    x6                  interdictionBudget                      314
    x7                  IC7                                       1
    x7                  interdictionBudget                      576
    x8                  IC8                                       1
    x8                  interdictionBudget                      290
    x9                  IC9                                       1
    x9                  interdictionBudget                      480
    MARK0001  'MARKER'                 'INTEND'
RHS
    rhs                 R0000000                               2111
    rhs                 IC0                                       1
    rhs                 IC1                                       1
    rhs                 IC2                                       1
    rhs                 IC3                                       1
    rhs                 IC4                                       1
    rhs                 IC5                                       1
    rhs                 IC6                                       1
    rhs                 IC7                                       1
    rhs                 IC8                                       1
    rhs                 IC9                                       1
    rhs                 interdictionBudget                     2499
BOUNDS
 UP bnd                 C0000000                                  1
 UP bnd                 C0000001                                  1
 UP bnd                 C0000002                                  1
 UP bnd                 C0000003                                  1
 UP bnd                 C0000004                                  1
 UP bnd                 C0000005                                  1
 UP bnd                 C0000006                                  1
 UP bnd                 C0000007                                  1
 UP bnd                 C0000008                                  1
 UP bnd                 C0000009                                  1
 UP bnd                 x0                                        1
 UP bnd                 x1                                        1
 UP bnd                 x2                                        1
 UP bnd                 x3                                        1
 UP bnd                 x4                                        1
 UP bnd                 x5                                        1
 UP bnd                 x6                                        1
 UP bnd                 x7                                        1
 UP bnd                 x8                                        1
 UP bnd                 x9                                        1
ENDATA
